
0.00,0
0.00,18
0.00,12
0.00,29
0.00,17
0.00,30
0.00,29
0.01,22
0.01,39
0.03,24
0.05,35
0.21,38
0.38,35
0.76,41
1.64,40
4.24,47
17.90,32
51.54,39
125.41,46
0,0
0,0
0,0
0,0
0,0
0,0
0,0
0,0
0,0
0,0
0,0
0,0
0,0
0,0
0,0
0,0
0,0
0,0
0,0
0,0
0,0
0,0
0,0
0,0
0,0
0,0
0,0
0,0
0,0
0,0
0,0
0,0
0,0
0,0
0,0
0,0
0,0
0,0
0,0
0,0
0,0
0,0